






































































































43 49 37 52 30 60 21 
35 10 18 75 29 61 57 
28 11 39 48 2 12 
59 70 14 68 3 53 
16 51 31 67 6 13 65 
1 46 24 71 20 36 
23 19 26 15 55 73 
7 72 9 74 33 5 
25 47 69 50 17 58 45 
4 66 38 44 56 27 63 
54 41 32 76 0 8 22 
64 62 40 34 42 
